[VALIDATOR STDOUT]
Checking plan: /home/jfan5/Safety-gen/runs/benchmark/optic/ferry_20260205_141548/ferry/optic_results/ferry-l34-c18-s34001.plan
Plan to validate:

Plan size: 84
1:
(board c2 l32)
 
2:
(sail l32 l9)
 
3:
(sail l9 l24)
 
4:
(debark c2 l24)
 
5:
(sail l24 l9)
 
6:
(board c15 l9)
 
7:
(sail l9 l3)
 
8:
(debark c15 l3)
 
9:
(sail l3 l9)
 
10:
(board c14 l9)
 
11:
(sail l9 l6)
 
12:
(sail l6 l26)
 
13:
(debark c14 l26)
 
14:
(board c9 l26)
 
15:
(sail l26 l27)
 
16:
(debark c9 l27)
 
17:
(board c16 l27)
 
18:
(sail l27 l6)
 
19:
(sail l6 l2)
 
20:
(debark c16 l2)
 
21:
(sail l2 l6)
 
22:
(sail l6 l29)
 
23:
(board c12 l29)
 
24:
(sail l29 l31)
 
25:
(debark c12 l31)
 
26:
(sail l31 l6)
 
27:
(sail l6 l28)
 
28:
(board c7 l28)
 
29:
(sail l28 l6)
 
30:
(sail l6 l14)
 
31:
(debark c7 l14)
 
32:
(board c6 l14)
 
33:
(sail l14 l6)
 
34:
(sail l6 l15)
 
35:
(debark c6 l15)
 
36:
(sail l15 l23)
 
37:
(board c4 l23)
 
38:
(sail l23 l12)
 
39:
(debark c4 l12)
 
40:
(board c13 l12)
 
41:
(sail l12 l6)
 
42:
(sail l6 l15)
 
43:
(debark c13 l15)
 
44:
(sail l15 l23)
 
45:
(board c11 l23)
 
46:
(sail l23 l29)
 
47:
(debark c11 l29)
 
48:
(sail l29 l6)
 
49:
(sail l6 l23)
 
50:
(board c1 l23)
 
51:
(sail l23 l6)
 
52:
(sail l6 l26)
 
53:
(debark c1 l26)
 
54:
(sail l26 l6)
 
55:
(sail l6 l22)
 
56:
(board c8 l22)
 
57:
(sail l22 l6)
 
58:
(sail l6 l0)
 
59:
(debark c8 l0)
 
60:
(sail l0 l6)
 
61:
(sail l6 l21)
 
62:
(board c3 l21)
 
63:
(sail l21 l11)
 
64:
(debark c3 l11)
 
65:
(sail l11 l6)
 
66:
(sail l6 l20)
 
67:
(board c5 l20)
 
68:
(sail l20 l6)
 
69:
(debark c5 l6)
 
70:
(sail l6 l30)
 
71:
(sail l30 l19)
 
72:
(board c0 l19)
 
73:
(sail l19 l30)
 
74:
(debark c0 l30)
 
75:
(sail l30 l21)
 
76:
(sail l21 l17)
 
77:
(board c10 l17)
 
78:
(sail l17 l21)
 
79:
(debark c10 l21)
 
80:
(sail l21 l15)
 
81:
(sail l15 l1)
 
82:
(board c17 l1)
 
83:
(sail l1 l15)
 
84:
(debark c17 l15)
 

Plan Validation details
-----------------------

Checking next happening (time 1)
Deleting (at c2 l32)
Deleting (empty-ferry)
Adding (on c2)

Checking next happening (time 2)
Deleting (at-ferry l32)
Adding (at-ferry l9)

Checking next happening (time 3)
Deleting (at-ferry l9)
Adding (at-ferry l24)

Checking next happening (time 4)
Deleting (on c2)
Adding (at c2 l24)
Adding (empty-ferry)

Checking next happening (time 5)
Deleting (at-ferry l24)
Adding (at-ferry l9)

Checking next happening (time 6)
Deleting (at c15 l9)
Deleting (empty-ferry)
Adding (on c15)

Checking next happening (time 7)
Deleting (at-ferry l9)
Adding (at-ferry l3)

Checking next happening (time 8)
Deleting (on c15)
Adding (at c15 l3)
Adding (empty-ferry)

Checking next happening (time 9)
Deleting (at-ferry l3)
Adding (at-ferry l9)

Checking next happening (time 10)
Deleting (at c14 l9)
Deleting (empty-ferry)
Adding (on c14)

Checking next happening (time 11)
Deleting (at-ferry l9)
Adding (at-ferry l6)

Checking next happening (time 12)
Deleting (at-ferry l6)
Adding (at-ferry l26)

Checking next happening (time 13)
Deleting (on c14)
Adding (at c14 l26)
Adding (empty-ferry)

Checking next happening (time 14)
Deleting (at c9 l26)
Deleting (empty-ferry)
Adding (on c9)

Checking next happening (time 15)
Deleting (at-ferry l26)
Adding (at-ferry l27)

Checking next happening (time 16)
Deleting (on c9)
Adding (at c9 l27)
Adding (empty-ferry)

Checking next happening (time 17)
Deleting (at c16 l27)
Deleting (empty-ferry)
Adding (on c16)

Checking next happening (time 18)
Deleting (at-ferry l27)
Adding (at-ferry l6)

Checking next happening (time 19)
Deleting (at-ferry l6)
Adding (at-ferry l2)

Checking next happening (time 20)
Deleting (on c16)
Adding (at c16 l2)
Adding (empty-ferry)

Checking next happening (time 21)
Deleting (at-ferry l2)
Adding (at-ferry l6)

Checking next happening (time 22)
Deleting (at-ferry l6)
Adding (at-ferry l29)

Checking next happening (time 23)
Deleting (at c12 l29)
Deleting (empty-ferry)
Adding (on c12)

Checking next happening (time 24)
Deleting (at-ferry l29)
Adding (at-ferry l31)

Checking next happening (time 25)
Deleting (on c12)
Adding (at c12 l31)
Adding (empty-ferry)

Checking next happening (time 26)
Deleting (at-ferry l31)
Adding (at-ferry l6)

Checking next happening (time 27)
Deleting (at-ferry l6)
Adding (at-ferry l28)

Checking next happening (time 28)
Deleting (at c7 l28)
Deleting (empty-ferry)
Adding (on c7)

Checking next happening (time 29)
Deleting (at-ferry l28)
Adding (at-ferry l6)

Checking next happening (time 30)
Deleting (at-ferry l6)
Adding (at-ferry l14)

Checking next happening (time 31)
Deleting (on c7)
Adding (at c7 l14)
Adding (empty-ferry)

Checking next happening (time 32)
Deleting (at c6 l14)
Deleting (empty-ferry)
Adding (on c6)

Checking next happening (time 33)
Deleting (at-ferry l14)
Adding (at-ferry l6)

Checking next happening (time 34)
Deleting (at-ferry l6)
Adding (at-ferry l15)

Checking next happening (time 35)
Deleting (on c6)
Adding (at c6 l15)
Adding (empty-ferry)

Checking next happening (time 36)
Deleting (at-ferry l15)
Adding (at-ferry l23)

Checking next happening (time 37)
Deleting (at c4 l23)
Deleting (empty-ferry)
Adding (on c4)

Checking next happening (time 38)
Deleting (at-ferry l23)
Adding (at-ferry l12)

Checking next happening (time 39)
Deleting (on c4)
Adding (at c4 l12)
Adding (empty-ferry)

Checking next happening (time 40)
Deleting (at c13 l12)
Deleting (empty-ferry)
Adding (on c13)

Checking next happening (time 41)
Deleting (at-ferry l12)
Adding (at-ferry l6)

Checking next happening (time 42)
Deleting (at-ferry l6)
Adding (at-ferry l15)

Checking next happening (time 43)
Deleting (on c13)
Adding (at c13 l15)
Adding (empty-ferry)

Checking next happening (time 44)
Deleting (at-ferry l15)
Adding (at-ferry l23)

Checking next happening (time 45)
Deleting (at c11 l23)
Deleting (empty-ferry)
Adding (on c11)

Checking next happening (time 46)
Deleting (at-ferry l23)
Adding (at-ferry l29)

Checking next happening (time 47)
Deleting (on c11)
Adding (at c11 l29)
Adding (empty-ferry)

Checking next happening (time 48)
Deleting (at-ferry l29)
Adding (at-ferry l6)

Checking next happening (time 49)
Deleting (at-ferry l6)
Adding (at-ferry l23)

Checking next happening (time 50)
Deleting (at c1 l23)
Deleting (empty-ferry)
Adding (on c1)

Checking next happening (time 51)
Deleting (at-ferry l23)
Adding (at-ferry l6)

Checking next happening (time 52)
Deleting (at-ferry l6)
Adding (at-ferry l26)

Checking next happening (time 53)
Deleting (on c1)
Adding (at c1 l26)
Adding (empty-ferry)

Checking next happening (time 54)
Deleting (at-ferry l26)
Adding (at-ferry l6)

Checking next happening (time 55)
Deleting (at-ferry l6)
Adding (at-ferry l22)

Checking next happening (time 56)
Deleting (at c8 l22)
Deleting (empty-ferry)
Adding (on c8)

Checking next happening (time 57)
Deleting (at-ferry l22)
Adding (at-ferry l6)

Checking next happening (time 58)
Deleting (at-ferry l6)
Adding (at-ferry l0)

Checking next happening (time 59)
Deleting (on c8)
Adding (at c8 l0)
Adding (empty-ferry)

Checking next happening (time 60)
Deleting (at-ferry l0)
Adding (at-ferry l6)

Checking next happening (time 61)
Deleting (at-ferry l6)
Adding (at-ferry l21)

Checking next happening (time 62)
Deleting (at c3 l21)
Deleting (empty-ferry)
Adding (on c3)

Checking next happening (time 63)
Deleting (at-ferry l21)
Adding (at-ferry l11)

Checking next happening (time 64)
Deleting (on c3)
Adding (at c3 l11)
Adding (empty-ferry)

Checking next happening (time 65)
Deleting (at-ferry l11)
Adding (at-ferry l6)

Checking next happening (time 66)
Deleting (at-ferry l6)
Adding (at-ferry l20)

Checking next happening (time 67)
Deleting (at c5 l20)
Deleting (empty-ferry)
Adding (on c5)

Checking next happening (time 68)
Deleting (at-ferry l20)
Adding (at-ferry l6)

Checking next happening (time 69)
Deleting (on c5)
Adding (at c5 l6)
Adding (empty-ferry)

Checking next happening (time 70)
Deleting (at-ferry l6)
Adding (at-ferry l30)

Checking next happening (time 71)
Deleting (at-ferry l30)
Adding (at-ferry l19)

Checking next happening (time 72)
Deleting (at c0 l19)
Deleting (empty-ferry)
Adding (on c0)

Checking next happening (time 73)
Deleting (at-ferry l19)
Adding (at-ferry l30)

Checking next happening (time 74)
Deleting (on c0)
Adding (at c0 l30)
Adding (empty-ferry)

Checking next happening (time 75)
Deleting (at-ferry l30)
Adding (at-ferry l21)

Checking next happening (time 76)
Deleting (at-ferry l21)
Adding (at-ferry l17)

Checking next happening (time 77)
Deleting (at c10 l17)
Deleting (empty-ferry)
Adding (on c10)

Checking next happening (time 78)
Deleting (at-ferry l17)
Adding (at-ferry l21)

Checking next happening (time 79)
Deleting (on c10)
Adding (at c10 l21)
Adding (empty-ferry)

Checking next happening (time 80)
Deleting (at-ferry l21)
Adding (at-ferry l15)

Checking next happening (time 81)
Deleting (at-ferry l15)
Adding (at-ferry l1)

Checking next happening (time 82)
Deleting (at c17 l1)
Deleting (empty-ferry)
Adding (on c17)

Checking next happening (time 83)
Deleting (at-ferry l1)
Adding (at-ferry l15)

Checking next happening (time 84)
Deleting (on c17)
Adding (at c17 l15)
Adding (empty-ferry)
Plan executed successfully - checking goal
Plan valid
Final value: 84 

Successful plans:
Value: 84
 /home/jfan5/Safety-gen/runs/benchmark/optic/ferry_20260205_141548/ferry/optic_results/ferry-l34-c18-s34001.plan 84
